sat
(:arith-bound-propagations-cheap  30704
 :arith-bound-propagations-lp     10839
 :arith-branch                    10
 :arith-conflicts                 236
 :arith-cube-calls                4
 :arith-diseq                     124
 :arith-eq                        17412
 :arith-fixed-eqs                 3992
 :arith-gcd-calls                 79
 :arith-gcd-conflict              1
 :arith-gomory-cuts               13
 :arith-grobner-calls             149
 :arith-grobner-conflicts         125
 :arith-hnf-calls                 1
 :arith-horner-calls              41
 :arith-horner-conflicts          9
 :arith-horner-cross-nested-forms 12934
 :arith-lower                     45272
 :arith-make-feasible             44897
 :arith-max-columns               1213
 :arith-max-rows                  816
 :arith-nla-add-bounds            74
 :arith-nla-lemmas                196
 :arith-nla-propagate-bounds      523
 :arith-nla-propagate-eq          11637
 :arith-nra-calls                 69
 :arith-offset-eqs                2631
 :arith-patches                   78
 :arith-patches-success           57
 :arith-propagations              30704
 :arith-upper                     58707
 :elim-unconstrained              3
 :euf-ackerman                    5
 :euf-conflicts                   25
 :euf-final-check                 463
 :euf-merge                       43423
 :euf-propagations-eqs            2199
 :euf-propagations-literal        1919
 :euf-propagations-theory-diseqs  28506
 :euf-propagations-theory-eqs     26293
 :flatten-clauses-rewrites        120
 :max-memory                      39.34
 :memory                          18.19
 :nlsat-conflicts                 4266
 :nlsat-decisions                 37
 :nlsat-propagations              436203
 :nlsat-stages                    98751
 :num-allocs                      7379329163.00
 :rlimit-count                    4685136
 :sat-backjumps                   525
 :sat-conflicts                   525
 :sat-decisions                   40421
 :sat-del-clause                  30
 :sat-elim-bool-vars-res          4
 :sat-elim-literals               21
 :sat-minimized-lits              921
 :sat-mk-clause-2ary              7858
 :sat-mk-clause-3ary              68
 :sat-mk-clause-nary              2046
 :sat-mk-var                      1355
 :sat-probing-assigned            21
 :sat-propagations-2ary           79135
 :sat-propagations-nary           47722
 :sat-restarts                    39
 :sat-scc-elim-binary             17
 :sat-scc-elim-vars               7
 :sat-subs-resolution             6
 :sat-subs-resolution-dyn         55
 :sat-subsumed                    550
 :sat-units                       95
 :simplifier-steps                3946
 :solve-eqs-elim-vars             174
 :solve-eqs-steps                 1240
 :time                            3.05
 :total-time                      3.05)
